 written by GAP
 1.0
        6.8321023985        0.0000000000        0.0000000000
        0.0000000000        6.8321023585        0.0000000000
        0.0000000040       -0.0000000038        6.6121298206
    B    C
   40    8
Direct
        0.0854038105        0.6721479346        0.4223014191
        0.9145973517        0.3278637025        0.9222817298
        0.8278567498        0.5854039019        0.1722866259
        0.1721469777        0.4145939331        0.6722884038
        0.4145961522        0.1721445740        0.3277086756
        0.5854012029        0.8278674388        0.8277256054
        0.6721435093        0.0854038090        0.5777162573
        0.3278608656        0.9145954540        0.0777274028
        0.9484088942        0.4766150069        0.4443954316
        0.0515869561        0.5234054956        0.9444032086
        0.0233906897        0.4484031623        0.1943927470
        0.9765998214        0.5515860357        0.6944046542
        0.5515800476        0.9766078381        0.3055880023
        0.4484162647        0.0234031919        0.8055897784
        0.4766129087        0.9484089550        0.5555971366
        0.5234078562        0.0515791584        0.0555821590
        0.7382427033        0.1625140138        0.9981972254
        0.2617752561        0.8374839264        0.4982062621
        0.3374818720        0.2382383305        0.7482019256
        0.6625133068        0.7617652407        0.2481979414
        0.7617635703        0.6625139188        0.7518043824
        0.2382247924        0.3374820418        0.2517951279
        0.1625182109        0.7382402082        0.0018028750
        0.8374846815        0.2617730242        0.5018001075
        0.5905586906        0.2689032598        0.1692879529
        0.4094571705        0.7310759501        0.6692869832
        0.2310762201        0.0905411153        0.9192833885
        0.7689057163        0.9094424352        0.4192919969
        0.9094331103        0.7689048722        0.5807103856
        0.0905459121        0.2310708501        0.0807150945
        0.2689188608        0.5905536801        0.8307155039
        0.7310815078        0.4094435974        0.3307100829
        0.6938457665        0.6938432199        0.0000035804
        0.3061537859        0.3061604139        0.5000065542
        0.8061599443        0.1938480651        0.7500040680
        0.1938435380        0.8061570994        0.2499986030
        0.5099278363        0.5099189299        0.0000124967
        0.4900799602        0.4900722370        0.4999965276
        0.9900698629        0.0099170668        0.7499838235
        0.0099150396        0.9900677414        0.2500146974
        0.5889431747        0.5309098280        0.6904073620
        0.4110404162        0.4690982204        0.1904099247
        0.9690980611        0.0889587308        0.4404170829
        0.0309182680        0.9110539125        0.9404023798
        0.9110559456        0.0309102937        0.0595942242
        0.0889625241        0.9691027551        0.5595829846
        0.5309045093        0.5889541649        0.3095824088
        0.4690883062        0.4110455814        0.8095927057
