ASE-GAP-Optimization-Fixcell
1.0
   7.1119999886    0.0000000000    0.0000000000
   0.0000000000    7.1119999886    0.0000000000
   0.0000000000    0.0000000000    7.1119999886
C  
64  
Direct
  -0.0078423796   -0.0078423796   -0.0078423796
   0.4999319890    0.0001057749    0.0001057749
   0.0001057749    0.4999319890    0.0001057749
   0.5008716985    0.5008716985   -0.0001873850
   0.0001057749    0.0001057749    0.4999319890
   0.5008716985   -0.0001873850    0.5008716985
  -0.0001873850    0.5008716985    0.5008716985
   0.4999357757    0.4999357757    0.4999357757
   0.0004464349    0.2500577792    0.2500577792
   0.5003258065    0.2502858352    0.2502858352
   0.0005444021    0.7502008383    0.2502903652
   0.5002638785    0.7498938101    0.2500121687
   0.0005444021    0.2502903652    0.7502008383
   0.5002638785    0.2500121687    0.7498938101
   0.0006021121    0.7496319660    0.7496319660
   0.5002076698    0.7502051676    0.7502051676
   0.2500577792    0.2500577792    0.0004464349
   0.7502008383    0.2502903652    0.0005444021
   0.2502903652    0.7502008383    0.0005444021
   0.7496319660    0.7496319660    0.0006021121
   0.2502858352    0.2502858352    0.5003258065
   0.7498938101    0.2500121687    0.5002638785
   0.2500121687    0.7498938101    0.5002638785
   0.7502051676    0.7502051676    0.5002076698
   0.2500577792    0.0004464349    0.2500577792
   0.7502008383    0.0005444021    0.2502903652
   0.2502858352    0.5003258065    0.2502858352
   0.7498938101    0.5002638785    0.2500121687
   0.2502903652    0.0005444021    0.7502008383
   0.7496319660    0.0006021121    0.7496319660
   0.2500121687    0.5002638785    0.7498938101
   0.7502051676    0.5002076698    0.7502051676
   0.3768522105    0.1256536857    0.3768522105
   0.8749221550    0.1254811816    0.3755078746
   0.3751377633    0.6251883799    0.3751377633
   0.8750710569    0.6253044891    0.3748493302
   0.3755078746    0.1254811816    0.8749221550
   0.8747131340    0.1264436122    0.8747131340
   0.3748493302    0.6253044891    0.8750710569
   0.8753827999    0.6258049453    0.8753827999
   0.1257270727    0.1257270727    0.1257270727
   0.6249216370    0.1249832433    0.1249832433
   0.1249832433    0.6249216370    0.1249832433
   0.6260045956    0.6260045956    0.1246795521
   0.1249832433    0.1249832433    0.6249216370
   0.6260045956    0.1246795521    0.6260045956
   0.1246795521    0.6260045956    0.6260045956
   0.6250140548    0.6250140548    0.6250140548
   0.1256536857    0.3768522105    0.3768522105
   0.6251883799    0.3751377633    0.3751377633
   0.1254811816    0.8749221550    0.3755078746
   0.6253044891    0.8750710569    0.3748493302
   0.1254811816    0.3755078746    0.8749221550
   0.6253044891    0.3748493302    0.8750710569
   0.1264436122    0.8747131340    0.8747131340
   0.6258049453    0.8753827999    0.8753827999
   0.3768522105    0.3768522105    0.1256536857
   0.8749221550    0.3755078746    0.1254811816
   0.3755078746    0.8749221550    0.1254811816
   0.8747131340    0.8747131340    0.1264436122
   0.3751377633    0.3751377633    0.6251883799
   0.8750710569    0.3748493302    0.6253044891
   0.3748493302    0.8750710569    0.6253044891
   0.8753827999    0.8753827999    0.6258049453
