QUIP2VASP
1.0
    6.349604208     0.000000000     0.000000000
    0.000000000     6.349604208     0.000000000
    0.000000000     0.000000000     6.349604208
B  C  
8  56  
Cartesian
     1.587400000     4.762200000     0.000000000 
     1.587400000     0.000000000     1.587400000 
     3.174800000     4.762200000     4.762200000 
     1.587400000     4.762200000     3.174800000 
     1.587400000     3.174800000     1.587400000 
     3.968500000     3.968500000     3.968500000 
     3.968500000     2.381100000     2.381100000 
     2.381100000     3.968500000     5.555900000 
     3.174800000     1.587400000     1.587400000 
     2.381100000     5.555900000     0.793700000 
     0.000000000     3.174800000     0.000000000 
     0.000000000     0.000000000     3.174800000 
     4.762200000     1.587400000     3.174800000 
     5.555900000     0.793700000     5.555900000 
     3.968500000     5.555900000     5.555900000 
     3.174800000     4.762200000     1.587400000 
     0.793700000     3.968500000     3.968500000 
     5.555900000     5.555900000     0.793700000 
     4.762200000     0.000000000     4.762200000 
     1.587400000     1.587400000     3.174800000 
     3.174800000     0.000000000     0.000000000 
     3.174800000     3.174800000     3.174800000 
     3.968500000     0.793700000     0.793700000 
     4.762200000     1.587400000     0.000000000 
     4.762200000     0.000000000     1.587400000 
     0.793700000     5.555900000     2.381100000 
     1.587400000     1.587400000     0.000000000 
     2.381100000     0.793700000     5.555900000 
     3.968500000     5.555900000     2.381100000 
     3.174800000     0.000000000     3.174800000 
     2.381100000     2.381100000     0.793700000 
     5.555900000     0.793700000     2.381100000 
     0.793700000     2.381100000     2.381100000 
     5.555900000     2.381100000     0.793700000 
     0.000000000     1.587400000     4.762200000 
     2.381100000     2.381100000     3.968500000 
     0.000000000     0.000000000     0.000000000 
     3.968500000     2.381100000     5.555900000 
     2.381100000     0.793700000     2.381100000 
     0.793700000     5.555900000     5.555900000 
     0.793700000     0.793700000     0.793700000 
     0.000000000     4.762200000     4.762200000 
     4.762200000     4.762200000     0.000000000 
     0.000000000     4.762200000     1.587400000 
     0.000000000     1.587400000     1.587400000 
     3.968500000     3.968500000     0.793700000 
     0.793700000     2.381100000     5.555900000 
     5.555900000     5.555900000     3.968500000 
     0.793700000     0.793700000     3.968500000 
     4.762200000     3.174800000     4.762200000 
     5.555900000     2.381100000     3.968500000 
     0.000000000     3.174800000     3.174800000 
     0.793700000     3.968500000     0.793700000 
     3.174800000     1.587400000     4.762200000 
     2.381100000     3.968500000     2.381100000 
     4.762200000     4.762200000     3.174800000 
     5.555900000     3.968500000     5.555900000 
     5.555900000     3.968500000     2.381100000 
     1.587400000     0.000000000     4.762200000 
     3.174800000     3.174800000     0.000000000 
     3.968500000     0.793700000     3.968500000 
     1.587400000     3.174800000     4.762200000 
     4.762200000     3.174800000     1.587400000 
     2.381100000     5.555900000     3.968500000 
